r = [
0,17,21,40,17,39,5,29,12,9,5,2,25,10,15,25,14,25,36,21,31,34,18,11,32,23,0
];
p = [
0,25,6,23,6,25,26,25,21,12,15,13,2,10,13,30,6,5,6,22,18,9,29,27,15,23,0
];
e = [
0,7,4,16,16,14,9,3,20,17,19,20,10,11,8,1,17,7,20,20,13,19,2,20,14,19,0
];
d = [
0,392,409,390,404,427,367,401,395,370,390,373,407,392,368,388,373,410,414,398,420,418,398,377,390,398,430
];
d_bar = [
0,395,410,392,405,430,370,404,397,371,392,374,408,393,369,391,374,411,415,400,422,419,401,380,392,400,430
];
w = [
0,2.333333333,4,8,16,4.666666667,3,1,10,17,9.5,20,10,11,8,0.333333333,17,7,20,10,6.5,19,0.666666667,6.666666667,7,9.5,0
];
